NAME: ali535
TYPE: TSP
COMMENT: My simple TSP
DIMENSION: 4
EDGE_WEIGHT_TYPE: GEO
DISPLAY_DATA_TYPE: COORD_DISPLAY
NODE_COORD_SECTION
1  2.0 1.0
2  5.0 1.0
3  5.0 4.0
4  2.0 3.0
5  3.0 4.0
6  4.0 2.0
EOF